c instancia_20  vars=15  clausulas=25  k=2
p cnf 15 25
6 12 0
12 -11 0
2 10 0
3 1 0
-3 4 0
-2 -14 0
-14 5 0
7 3 0
2 6 0
-7 -13 0
-2 -12 0
2 -11 0
4 -1 0
-14 7 0
10 -13 0
-15 -14 0
-9 -8 0
-2 9 0
4 -7 0
-6 12 0
-1 -15 0
2 -8 0
-2 -8 0
4 10 0
-12 -3 0
